benchmarks/VRPTW/TSPTW/solution/n200w40.004.txt.solution
1 188 36 120 42 54 6 69 109 137 48 73 25 148 174 114 2 185 12 24 80 168 142 143 144 93 192 65 68 184 46 133 63 8 67 104 199 119 76 190 37 50 94 27 131 55 171 127 181 83 159 116 58 160 165 66 196 128 121 154 153 51 124 100 151 170 57 103 112 38 167 22 169 15 102 163 113 140 32 41 28 88 29 19 62 145 195 177 194 117 90 166 87 115 141 126 200 11 61 157 35 40 180 96 147 182 49 135 138 21 106 60 23 34 164 161 59 53 26 129 122 79 31 99 74 125 98 173 197 152 33 156 178 146 78 136 107 3 172 91 89 183 189 84 139 123 176 110 64 134 85 20 86 97 111 198 193 43 101 5 175 39 186 47 77 72 162 45 81 4 70 52 71 150 16 7 18 75 30 44 108 14 191 187 82 149 92 56 17 10 13 105 155 130 118 179 9 132 201 158 95 
980
